p cnf 28 73
a 3 12 0
e 1 2 4 5 6 7 8 9 10 11 13 14 15 16 17 18 19 20 21 22 23 24 25 26 27 28 0
3 1 0
3 2 0
-1 -2 -3 0
-6 -4 0
-6 -5 0
4 5 6 0
-7 6 0
-7 2 0
-6 -2 7 0
-9 8 0
-9 6 0
-8 -6 9 0
-10 7 0
-10 9 0
-7 -9 10 0
3 10 -11 0
-3 -10 -11 0
3 -10 11 0
-3 10 11 0
-12 4 -13 0
12 -4 -13 0
-12 -4 13 0
12 4 13 0
-14 5 0
-14 -12 0
-5 12 14 0
2 -12 -15 0
-2 12 -15 0
2 12 15 0
-2 -12 15 0
17 -16 0
17 12 0
16 -12 -17 0
-18 -15 0
-18 17 0
15 -17 18 0
-14 -18 -19 0
14 18 -19 0
-14 18 19 0
14 -18 19 0
-20 8 0
-20 4 0
-8 -4 20 0
21 19 0
21 -20 0
-19 20 -21 0
-22 13 0
-22 -21 0
-13 21 22 0
-23 -16 -24 0
23 16 -24 0
-23 16 24 0
23 -16 24 0
-25 12 0
-25 8 0
-12 -8 25 0
-26 -24 0
-26 25 0
24 -25 26 0
27 22 0
27 26 0
-22 -26 -27 0
28 11 0
28 -27 0
-11 27 -28 0
-21 23 12 13 -27 0
-19 -13 -17 16 23 -9 0
24 19 27 14 4 10 0
25 -12 -8 2 -6 -24 0
-12 -3 25 20 -7 14 18 0
2 25 -9 -8 0
16 -26 -6 -17 0
28 0
